0
48
19
14
0
33
35
51
128
59
64
13
0
0
0
64
41
16
570
0
0
26
56
33
0
0
312
20
119
134
22
17
42
20
56
10
28
37
29
51
82
16
37
55
65
206
10
0
36
105
0
19
15
97
0
12
874
99
577
0
50
0
0
0
68
478
0
30
24
30
12
13
17
0
277
15
0
164
48
0
235
72
66
87
51
77
19
54
0
28
24
158
36
37
25
34
83
161
14
161
